% File represents an instance of a Composite Structure problem to be solved by a CP framework
% Created on 2025-03-26 10:41:30.921
T = 56;
n = 25;
m = 40;
edges = [(1, 2),
(6, 7),
(11, 12),
(16, 17),
(22, 21),
(2, 3),
(8, 7),
(12, 13),
(17, 18),
(22, 23),
(3, 4),
(9, 8),
(14, 13),
(19, 18),
(24, 23),
(4, 5),
(9, 10),
(15, 14),
(20, 19),
(24, 25),
(1, 6),
(11, 6),
(11, 16),
(16, 21),
(2, 7),
(12, 7),
(12, 17),
(22, 17),
(8, 3),
(8, 13),
(13, 18),
(23, 18),
(9, 4),
(9, 14),
(14, 19),
(24, 19),
(10, 5),
(15, 10),
(15, 20),
(20, 25)];
counts = [|12, 14, 12, 16,
|12, 14, 12, 14,
|12, 14, 12, 12,
|12, 14, 12, 10,
|12, 14, 12, 8,
|12, 12, 12, 16,
|12, 12, 12, 12,
|12, 14, 12, 14,
|12, 14, 12, 16,
|12, 14, 12, 12,
|12, 12, 12, 18,
|12, 12, 12, 16,
|12, 12, 12, 14,
|12, 12, 12, 16,
|12, 14, 12, 18,
|12, 10, 12, 18,
|12, 8, 12, 16,
|12, 8, 12, 14,
|12, 10, 12, 16,
|12, 12, 12, 16,
|12, 8, 12, 16,
|12, 8, 12, 20,
|12, 8, 12, 18,
|12, 10, 12, 18,
|12, 6, 12, 16|];
